38
35
52
50
54
44
79
60
58
80
49
29
90
78
75
7
23
88
56
69
6
61
98
17
72
33
9
32
85
28
73
36
14
94
45
81
83
8
48
74
57
51
2
42
24
37
53
92
25
20
86
84
91
55
16
66
63
22
30
70
5
12
34
1
89
96
95
65
11
77
40
15
10
68
39
21
87
43
82
26
27
62
59
67
19
0
4
93
41
71
76
46
99
3
18
97
13
47
64
31
